25 50
1 2 1
1 6 4
2 3 3
2 7 4
3 4 1
3 8 3
4 5 1
4 9 5
5 10 2
6 7 5
6 11 5
7 8 3
7 12 3
8 9 5
8 13 4
9 10 3
9 14 2
10 15 4
11 12 5
11 16 5
12 13 1
12 17 2
13 14 1
13 18 4
14 15 1
14 19 4
15 20 3
16 17 4
16 21 2
17 18 2
17 22 3
18 19 4
18 23 3
19 20 1
19 24 1
20 25 1
21 22 4
22 23 1
23 24 4
24 25 3
1 21 5
2 22 4
3 23 4
4 24 5
5 25 1
1 5 5
6 10 1
11 15 2
16 20 2
21 25 2
